qbf_easy_train/easy_5975_SAT.qdimacs
p cnf 29 80
a 1 10 19 0
e 2 3 4 5 6 7 8 9 11 12 13 14 15 16 17 18 20 21 22 23 24 25 26 27 28 29 0
3 1 0
3 2 0
-1 -2 -3 0
7 -5 0
7 -6 0
5 6 -7 0
-8 -4 0
-8 7 0
4 -7 8 0
8 9 -10 0
-8 -9 -10 0
8 -9 10 0
-8 9 10 0
-10 11 -12 0
10 -11 -12 0
-10 -11 12 0
10 11 12 0
-13 3 0
-13 12 0
-3 -12 13 0
14 11 0
14 5 0
-11 -5 -14 0
-7 -14 -15 0
7 14 -15 0
-7 14 15 0
7 -14 15 0
-15 16 0
15 16 0
-17 -13 0
-17 -16 0
13 16 17 0
18 -1 -19 0
-18 1 -19 0
18 1 19 0
-18 -1 19 0
17 -19 -20 0
-17 19 -20 0
17 19 20 0
-17 -19 20 0
21 8 0
21 -9 0
-8 9 -21 0
8 -21 -22 0
-8 21 -22 0
8 21 22 0
-8 -21 22 0
23 20 0
23 -22 0
-20 22 -23 0
8 -21 -24 0
-8 21 -24 0
8 21 24 0
-8 -21 24 0
24 5 -25 0
-24 -5 -25 0
24 -5 25 0
-24 5 25 0
25 15 -26 0
-25 -15 -26 0
25 -15 26 0
-25 15 26 0
-27 23 0
-27 26 0
-23 -26 27 0
-4 2 -28 0
4 -2 -28 0
-4 -2 28 0
4 2 28 0
-29 -27 0
-29 -28 0
27 28 29 0
-13 2 -16 -24 -17 -15 0
-27 20 22 10 3 -25 0
-24 28 -3 -14 0
11 22 26 8 -3 5 -6 -24 0
-16 15 14 0
-22 -11 -16 -29 6 0
-21 -26 -19 4 -3 -8 -23 -22 0
29 0
