sat_easy_train/easy_5975_SAT.dimacs
p cnf 141 482
4 -3 -5 0
-4 3 -5 0
4 3 5 0
-4 -3 5 0
6 3 0
6 -5 0
-3 5 -6 0
-2 6 -7 0
2 -6 -7 0
-2 -6 7 0
2 6 7 0
9 8 0
9 -8 0
7 -9 -10 0
-7 9 -10 0
7 9 10 0
-7 -9 10 0
11 8 0
11 -2 0
-8 2 -11 0
12 -10 0
12 11 0
10 -11 -12 0
-1 12 -13 0
1 -12 -13 0
-1 -12 13 0
1 12 13 0
3 -1 -15 0
-3 1 -15 0
3 1 15 0
-3 -1 15 0
16 -14 0
16 15 0
14 -15 -16 0
-18 5 0
-18 17 0
-5 -17 18 0
-20 -18 0
-20 -19 0
18 19 20 0
-20 18 -21 0
20 -18 -21 0
-20 -18 21 0
20 18 21 0
22 21 0
22 4 0
-21 -4 -22 0
23 -22 0
23 -9 0
22 9 -23 0
16 23 -24 0
-16 -23 -24 0
16 -23 24 0
-16 23 24 0
-25 13 0
-25 24 0
-13 -24 25 0
-27 -22 0
-27 -26 0
22 26 27 0
25 -27 -28 0
-25 27 -28 0
25 27 28 0
-25 -27 28 0
-29 -26 0
-29 -7 0
26 7 29 0
30 10 0
30 11 0
-10 -11 -30 0
-31 19 0
-31 -15 0
-19 15 31 0
-32 -30 0
-32 31 0
30 -31 32 0
29 32 -33 0
-29 -32 -33 0
29 -32 33 0
-29 32 33 0
-5 -2 -34 0
5 2 -34 0
-5 2 34 0
5 -2 34 0
-34 2 -35 0
34 -2 -35 0
-34 -2 35 0
34 2 35 0
-36 33 0
-36 35 0
-33 -35 36 0
37 28 0
37 36 0
-28 -36 -37 0
-20 38 -39 0
20 -38 -39 0
-20 -38 39 0
20 38 39 0
-40 -39 0
-40 22 0
39 -22 40 0
41 37 0
41 40 0
-37 -40 -41 0
43 -18 0
43 -42 0
18 42 -43 0
44 -43 0
44 17 0
43 -17 -44 0
45 44 0
45 -16 0
-44 16 -45 0
38 46 -47 0
-38 -46 -47 0
38 -46 47 0
-38 46 47 0
48 45 0
48 -47 0
-45 47 -48 0
-49 48 0
-49 21 0
-48 -21 49 0
50 -44 0
50 -49 0
44 49 -50 0
51 -14 0
51 31 0
14 -31 -51 0
-52 44 0
-52 -51 0
-44 51 52 0
-53 -50 0
-53 -52 0
50 52 53 0
54 38 0
54 46 0
-38 -46 -54 0
-55 15 0
-55 54 0
-15 -54 55 0
-56 -6 0
-56 -55 0
6 55 56 0
-57 53 0
-57 -56 0
-53 56 57 0
58 47 0
58 15 0
-47 -15 -58 0
-59 57 0
-59 -58 0
-57 58 59 0
41 59 -60 0
-41 -59 -60 0
41 -59 60 0
-41 59 60 0
61 -31 0
61 47 0
31 -47 -61 0
7 62 -63 0
-7 -62 -63 0
7 -62 63 0
-7 62 63 0
61 63 -64 0
-61 -63 -64 0
61 -63 64 0
-61 63 64 0
65 62 0
65 -14 0
-62 14 -65 0
7 -65 -66 0
-7 65 -66 0
7 65 66 0
-7 -65 66 0
-14 -62 -67 0
14 62 -67 0
-14 62 67 0
14 -62 67 0
67 3 -68 0
-67 -3 -68 0
67 -3 68 0
-67 3 68 0
-69 66 0
-69 68 0
-66 -68 69 0
-71 -70 0
-71 48 0
70 -48 71 0
-72 26 0
-72 -9 0
-26 9 72 0
74 73 0
74 15 0
-73 -15 -74 0
-72 74 -75 0
72 -74 -75 0
-72 -74 75 0
72 74 75 0
-75 -49 -76 0
75 49 -76 0
-75 49 76 0
75 -49 76 0
-77 71 0
-77 -76 0
-71 76 77 0
-69 77 -78 0
69 -77 -78 0
-69 -77 78 0
69 77 78 0
-79 64 0
-79 -78 0
-64 78 79 0
80 60 0
80 -79 0
-60 79 -80 0
-20 10 -81 0
20 -10 -81 0
-20 -10 81 0
20 10 81 0
81 -16 -82 0
-81 16 -82 0
81 16 82 0
-81 -16 82 0
83 15 0
83 4 0
-15 -4 -83 0
84 -82 0
84 -83 0
82 83 -84 0
-85 -46 0
-85 1 0
46 -1 85 0
85 -55 -86 0
-85 55 -86 0
85 55 86 0
-85 -55 86 0
87 -62 0
87 -6 0
62 6 -87 0
-5 85 -88 0
5 -85 -88 0
-5 -85 88 0
5 85 88 0
-89 87 0
-89 88 0
-87 -88 89 0
-86 89 -90 0
86 -89 -90 0
-86 -89 90 0
86 89 90 0
8 15 -91 0
-8 -15 -91 0
8 -15 91 0
-8 15 91 0
-92 -70 0
-92 91 0
70 -91 92 0
93 92 0
93 -17 0
-92 17 -93 0
90 93 -94 0
-90 -93 -94 0
90 -93 94 0
-90 93 94 0
95 17 0
95 29 0
-17 -29 -95 0
96 89 0
96 95 0
-89 -95 -96 0
-7 -10 -97 0
7 10 -97 0
-7 10 97 0
7 -10 97 0
98 47 0
98 38 0
-47 -38 -98 0
-99 -97 0
-99 -98 0
97 98 99 0
-100 -44 0
-100 73 0
44 -73 100 0
-101 -7 0
-101 100 0
7 -100 101 0
-99 101 -102 0
99 -101 -102 0
-99 -101 102 0
99 101 102 0
55 -29 -103 0
-55 29 -103 0
55 29 103 0
-55 -29 103 0
-102 103 -104 0
102 -103 -104 0
-102 -103 104 0
102 103 104 0
105 93 0
105 -55 0
-93 55 -105 0
-106 -104 0
-106 -105 0
104 105 106 0
-96 106 -107 0
96 -106 -107 0
-96 -106 107 0
96 106 107 0
108 -94 0
108 -107 0
94 107 -108 0
-19 83 -109 0
19 -83 -109 0
-19 -83 109 0
19 83 109 0
-110 -19 0
-110 -70 0
19 70 110 0
111 30 0
111 -5 0
-30 5 -111 0
112 10 0
112 111 0
-10 -111 -112 0
114 -112 0
114 113 0
112 -113 -114 0
-115 110 0
-115 114 0
-110 -114 115 0
-116 -8 0
-116 72 0
8 -72 116 0
-117 -116 0
-117 91 0
116 -91 117 0
-115 -117 -118 0
115 117 -118 0
-115 117 118 0
115 -117 118 0
119 109 0
119 -118 0
-109 118 -119 0
-108 -119 -120 0
108 119 -120 0
-108 119 120 0
108 -119 120 0
84 -120 -121 0
-84 120 -121 0
84 120 121 0
-84 -120 121 0
122 -62 0
122 2 0
62 -2 -122 0
123 122 0
123 4 0
-122 -4 -123 0
124 -123 0
124 -82 0
123 82 -124 0
-6 -62 -125 0
6 62 -125 0
-6 62 125 0
6 -62 125 0
126 -51 0
126 125 0
51 -125 -126 0
127 74 0
127 -126 0
-74 126 -127 0
87 43 -128 0
-87 -43 -128 0
87 -43 128 0
-87 43 128 0
-31 128 -129 0
31 -128 -129 0
-31 -128 129 0
31 128 129 0
-127 129 -130 0
127 -129 -130 0
-127 -129 130 0
127 129 130 0
-124 -130 -131 0
124 130 -131 0
-124 130 131 0
124 -130 131 0
-132 9 0
-132 -22 0
-9 22 132 0
-133 83 0
-133 125 0
-83 -125 133 0
134 -132 0
134 133 0
132 -133 -134 0
-85 67 -135 0
85 -67 -135 0
-85 -67 135 0
85 67 135 0
-136 7 0
-136 -135 0
-7 135 136 0
-137 -70 0
-137 136 0
70 -136 137 0
-138 -134 0
-138 -137 0
134 137 138 0
139 131 0
139 138 0
-131 -138 -139 0
140 121 0
140 -139 0
-121 139 -140 0
141 -80 0
141 -140 0
80 140 -141 0
-76 -85 -42 29 -13 0
-140 -71 124 -133 103 0
82 11 92 0
-98 68 -23 0
18 -106 0
-138 4 24 -83 123 114 0
-81 -104 -115 -55 0
109 -99 -70 0
-118 45 -16 19 123 -89 0
-71 -17 7 -33 -106 0
-3 44 0
-71 34 -44 101 0
-132 13 -72 63 -2 0
105 4 -32 0
-88 -28 -91 -36 74 0
39 -3 72 5 0
-68 -97 22 0
67 61 -74 -117 -104 0
51 67 124 1 -139 99 0
-84 -95 -77 0
-110 -90 -107 117 79 -135 0
-115 -74 -78 -22 0
-111 -74 118 12 -29 27 0
2 107 0
138 120 -18 126 -79 0
-101 -132 116 64 127 0
-17 63 97 139 0
-99 -75 -69 0
61 -39 -9 90 -33 0
62 -134 -43 0
132 -30 52 -17 -85 0
-72 -36 56 21 0
-23 8 108 4 -137 0
84 -91 0
-101 -126 83 -53 110 -25 0
-139 30 0
69 53 -46 -41 19 89 0
-137 -87 -128 -100 32 0
-75 -67 122 103 0
29 -6 -102 53 0
-57 -132 -75 -86 111 0
38 104 -52 -24 114 0
115 23 -140 134 -55 109 0
18 -77 42 34 0
27 69 64 -51 129 119 0
-100 6 0
35 -1 75 118 -134 47 0
-82 39 0
-136 64 -33 0
46 -43 -122 0
64 -28 -56 0
-55 -30 77 138 137 0
-43 90 -98 -110 71 0
99 82 0
-18 84 64 -52 -129 -71 0
29 46 -133 0
-66 -50 0
97 -47 58 -33 0
53 80 28 -70 18 32 0
-131 -99 0
-54 140 -2 49 0
-44 -29 128 -51 -47 -134 0
-39 -89 99 77 0
141 0
